certificates/rado_a5_c268_N53.cnf
c Rad2 upper bound instance: x1 + 5*x2 - x3 = 268, interval [1,53]
p cnf 53 550
1 4 53 0
-1 -4 -53 0
2 5 53 0
-2 -5 -53 0
3 6 53 0
-3 -6 -53 0
4 7 53 0
-4 -7 -53 0
5 8 53 0
-5 -8 -53 0
1 9 52 0
-1 -9 -52 0
6 9 53 0
-6 -9 -53 0
2 10 52 0
-2 -10 -52 0
7 10 53 0
-7 -10 -53 0
3 11 52 0
-3 -11 -52 0
8 11 53 0
-8 -11 -53 0
4 12 52 0
-4 -12 -52 0
9 12 53 0
-9 -12 -53 0
5 13 52 0
-5 -13 -52 0
10 13 53 0
-10 -13 -53 0
1 14 51 0
-1 -14 -51 0
6 14 52 0
-6 -14 -52 0
11 14 53 0
-11 -14 -53 0
2 15 51 0
-2 -15 -51 0
7 15 52 0
-7 -15 -52 0
12 15 53 0
-12 -15 -53 0
3 16 51 0
-3 -16 -51 0
8 16 52 0
-8 -16 -52 0
13 16 53 0
-13 -16 -53 0
4 17 51 0
-4 -17 -51 0
9 17 52 0
-9 -17 -52 0
14 17 53 0
-14 -17 -53 0
5 18 51 0
-5 -18 -51 0
10 18 52 0
-10 -18 -52 0
15 18 53 0
-15 -18 -53 0
1 19 50 0
-1 -19 -50 0
6 19 51 0
-6 -19 -51 0
11 19 52 0
-11 -19 -52 0
16 19 53 0
-16 -19 -53 0
2 20 50 0
-2 -20 -50 0
7 20 51 0
-7 -20 -51 0
12 20 52 0
-12 -20 -52 0
17 20 53 0
-17 -20 -53 0
3 21 50 0
-3 -21 -50 0
8 21 51 0
-8 -21 -51 0
13 21 52 0
-13 -21 -52 0
18 21 53 0
-18 -21 -53 0
4 22 50 0
-4 -22 -50 0
9 22 51 0
-9 -22 -51 0
14 22 52 0
-14 -22 -52 0
19 22 53 0
-19 -22 -53 0
5 23 50 0
-5 -23 -50 0
10 23 51 0
-10 -23 -51 0
15 23 52 0
-15 -23 -52 0
20 23 53 0
-20 -23 -53 0
1 24 49 0
-1 -24 -49 0
6 24 50 0
-6 -24 -50 0
11 24 51 0
-11 -24 -51 0
16 24 52 0
-16 -24 -52 0
21 24 53 0
-21 -24 -53 0
2 25 49 0
-2 -25 -49 0
7 25 50 0
-7 -25 -50 0
12 25 51 0
-12 -25 -51 0
17 25 52 0
-17 -25 -52 0
22 25 53 0
-22 -25 -53 0
3 26 49 0
-3 -26 -49 0
8 26 50 0
-8 -26 -50 0
13 26 51 0
-13 -26 -51 0
18 26 52 0
-18 -26 -52 0
23 26 53 0
-23 -26 -53 0
4 27 49 0
-4 -27 -49 0
9 27 50 0
-9 -27 -50 0
14 27 51 0
-14 -27 -51 0
19 27 52 0
-19 -27 -52 0
24 27 53 0
-24 -27 -53 0
5 28 49 0
-5 -28 -49 0
10 28 50 0
-10 -28 -50 0
15 28 51 0
-15 -28 -51 0
20 28 52 0
-20 -28 -52 0
25 28 53 0
-25 -28 -53 0
1 29 48 0
-1 -29 -48 0
6 29 49 0
-6 -29 -49 0
11 29 50 0
-11 -29 -50 0
16 29 51 0
-16 -29 -51 0
21 29 52 0
-21 -29 -52 0
26 29 53 0
-26 -29 -53 0
2 30 48 0
-2 -30 -48 0
7 30 49 0
-7 -30 -49 0
12 30 50 0
-12 -30 -50 0
17 30 51 0
-17 -30 -51 0
22 30 52 0
-22 -30 -52 0
27 30 53 0
-27 -30 -53 0
3 31 48 0
-3 -31 -48 0
8 31 49 0
-8 -31 -49 0
13 31 50 0
-13 -31 -50 0
18 31 51 0
-18 -31 -51 0
23 31 52 0
-23 -31 -52 0
28 31 53 0
-28 -31 -53 0
4 32 48 0
-4 -32 -48 0
9 32 49 0
-9 -32 -49 0
14 32 50 0
-14 -32 -50 0
19 32 51 0
-19 -32 -51 0
24 32 52 0
-24 -32 -52 0
29 32 53 0
-29 -32 -53 0
5 33 48 0
-5 -33 -48 0
10 33 49 0
-10 -33 -49 0
15 33 50 0
-15 -33 -50 0
20 33 51 0
-20 -33 -51 0
25 33 52 0
-25 -33 -52 0
30 33 53 0
-30 -33 -53 0
1 34 47 0
-1 -34 -47 0
6 34 48 0
-6 -34 -48 0
11 34 49 0
-11 -34 -49 0
16 34 50 0
-16 -34 -50 0
21 34 51 0
-21 -34 -51 0
26 34 52 0
-26 -34 -52 0
31 34 53 0
-31 -34 -53 0
2 35 47 0
-2 -35 -47 0
7 35 48 0
-7 -35 -48 0
12 35 49 0
-12 -35 -49 0
17 35 50 0
-17 -35 -50 0
22 35 51 0
-22 -35 -51 0
27 35 52 0
-27 -35 -52 0
32 35 53 0
-32 -35 -53 0
3 36 47 0
-3 -36 -47 0
8 36 48 0
-8 -36 -48 0
13 36 49 0
-13 -36 -49 0
18 36 50 0
-18 -36 -50 0
23 36 51 0
-23 -36 -51 0
28 36 52 0
-28 -36 -52 0
33 36 53 0
-33 -36 -53 0
4 37 47 0
-4 -37 -47 0
9 37 48 0
-9 -37 -48 0
14 37 49 0
-14 -37 -49 0
19 37 50 0
-19 -37 -50 0
24 37 51 0
-24 -37 -51 0
29 37 52 0
-29 -37 -52 0
34 37 53 0
-34 -37 -53 0
5 38 47 0
-5 -38 -47 0
10 38 48 0
-10 -38 -48 0
15 38 49 0
-15 -38 -49 0
20 38 50 0
-20 -38 -50 0
25 38 51 0
-25 -38 -51 0
30 38 52 0
-30 -38 -52 0
35 38 53 0
-35 -38 -53 0
1 39 46 0
-1 -39 -46 0
6 39 47 0
-6 -39 -47 0
11 39 48 0
-11 -39 -48 0
16 39 49 0
-16 -39 -49 0
21 39 50 0
-21 -39 -50 0
26 39 51 0
-26 -39 -51 0
31 39 52 0
-31 -39 -52 0
36 39 53 0
-36 -39 -53 0
2 40 46 0
-2 -40 -46 0
7 40 47 0
-7 -40 -47 0
12 40 48 0
-12 -40 -48 0
17 40 49 0
-17 -40 -49 0
22 40 50 0
-22 -40 -50 0
27 40 51 0
-27 -40 -51 0
32 40 52 0
-32 -40 -52 0
37 40 53 0
-37 -40 -53 0
3 41 46 0
-3 -41 -46 0
8 41 47 0
-8 -41 -47 0
13 41 48 0
-13 -41 -48 0
18 41 49 0
-18 -41 -49 0
23 41 50 0
-23 -41 -50 0
28 41 51 0
-28 -41 -51 0
33 41 52 0
-33 -41 -52 0
38 41 53 0
-38 -41 -53 0
4 42 46 0
-4 -42 -46 0
9 42 47 0
-9 -42 -47 0
14 42 48 0
-14 -42 -48 0
19 42 49 0
-19 -42 -49 0
24 42 50 0
-24 -42 -50 0
29 42 51 0
-29 -42 -51 0
34 42 52 0
-34 -42 -52 0
39 42 53 0
-39 -42 -53 0
5 43 46 0
-5 -43 -46 0
10 43 47 0
-10 -43 -47 0
15 43 48 0
-15 -43 -48 0
20 43 49 0
-20 -43 -49 0
25 43 50 0
-25 -43 -50 0
30 43 51 0
-30 -43 -51 0
35 43 52 0
-35 -43 -52 0
40 43 53 0
-40 -43 -53 0
1 44 45 0
-1 -44 -45 0
6 44 46 0
-6 -44 -46 0
11 44 47 0
-11 -44 -47 0
16 44 48 0
-16 -44 -48 0
21 44 49 0
-21 -44 -49 0
26 44 50 0
-26 -44 -50 0
31 44 51 0
-31 -44 -51 0
36 44 52 0
-36 -44 -52 0
41 44 53 0
-41 -44 -53 0
2 45 0
-2 -45 0
7 45 46 0
-7 -45 -46 0
12 45 47 0
-12 -45 -47 0
17 45 48 0
-17 -45 -48 0
22 45 49 0
-22 -45 -49 0
27 45 50 0
-27 -45 -50 0
32 45 51 0
-32 -45 -51 0
37 45 52 0
-37 -45 -52 0
42 45 53 0
-42 -45 -53 0
3 45 46 0
-3 -45 -46 0
8 46 0
-8 -46 0
13 46 47 0
-13 -46 -47 0
18 46 48 0
-18 -46 -48 0
23 46 49 0
-23 -46 -49 0
28 46 50 0
-28 -46 -50 0
33 46 51 0
-33 -46 -51 0
38 46 52 0
-38 -46 -52 0
43 46 53 0
-43 -46 -53 0
4 45 47 0
-4 -45 -47 0
9 46 47 0
-9 -46 -47 0
14 47 0
-14 -47 0
19 47 48 0
-19 -47 -48 0
24 47 49 0
-24 -47 -49 0
29 47 50 0
-29 -47 -50 0
34 47 51 0
-34 -47 -51 0
39 47 52 0
-39 -47 -52 0
44 47 53 0
-44 -47 -53 0
5 45 48 0
-5 -45 -48 0
10 46 48 0
-10 -46 -48 0
15 47 48 0
-15 -47 -48 0
20 48 0
-20 -48 0
25 48 49 0
-25 -48 -49 0
30 48 50 0
-30 -48 -50 0
35 48 51 0
-35 -48 -51 0
40 48 52 0
-40 -48 -52 0
45 48 53 0
-45 -48 -53 0
1 44 49 0
-1 -44 -49 0
6 45 49 0
-6 -45 -49 0
11 46 49 0
-11 -46 -49 0
16 47 49 0
-16 -47 -49 0
21 48 49 0
-21 -48 -49 0
26 49 0
-26 -49 0
31 49 50 0
-31 -49 -50 0
36 49 51 0
-36 -49 -51 0
41 49 52 0
-41 -49 -52 0
46 49 53 0
-46 -49 -53 0
2 44 50 0
-2 -44 -50 0
7 45 50 0
-7 -45 -50 0
12 46 50 0
-12 -46 -50 0
17 47 50 0
-17 -47 -50 0
22 48 50 0
-22 -48 -50 0
27 49 50 0
-27 -49 -50 0
32 50 0
-32 -50 0
37 50 51 0
-37 -50 -51 0
42 50 52 0
-42 -50 -52 0
47 50 53 0
-47 -50 -53 0
3 44 51 0
-3 -44 -51 0
8 45 51 0
-8 -45 -51 0
13 46 51 0
-13 -46 -51 0
18 47 51 0
-18 -47 -51 0
23 48 51 0
-23 -48 -51 0
28 49 51 0
-28 -49 -51 0
33 50 51 0
-33 -50 -51 0
38 51 0
-38 -51 0
43 51 52 0
-43 -51 -52 0
48 51 53 0
-48 -51 -53 0
4 44 52 0
-4 -44 -52 0
9 45 52 0
-9 -45 -52 0
14 46 52 0
-14 -46 -52 0
19 47 52 0
-19 -47 -52 0
24 48 52 0
-24 -48 -52 0
29 49 52 0
-29 -49 -52 0
34 50 52 0
-34 -50 -52 0
39 51 52 0
-39 -51 -52 0
44 52 0
-44 -52 0
49 52 53 0
-49 -52 -53 0
5 44 53 0
-5 -44 -53 0
10 45 53 0
-10 -45 -53 0
15 46 53 0
-15 -46 -53 0
20 47 53 0
-20 -47 -53 0
25 48 53 0
-25 -48 -53 0
30 49 53 0
-30 -49 -53 0
35 50 53 0
-35 -50 -53 0
40 51 53 0
-40 -51 -53 0
45 52 53 0
-45 -52 -53 0
50 53 0
-50 -53 0
