certificates/rado_a5_c268_N53.drat
-53 0
50 0
-32 0
29 0
35 0
-11 0
-47 0
-17 0
8 0
14 0
44 0
20 0
-26 0
-46 0
-2 0
-52 0
-38 0
-48 0
18 0
23 0
34 0
49 0
13 0
0
